3
8
20
1 1.3 1.55 1.75 2.1
7 16 42 39 19 27 49 19 13 20 29 16 18 5 30 45 17 44 45 26 49 32 29 15 46 40 19 20 18 30 37 42 48 10 33 11 17 34 47 42 37 34 27 16 24 12 34 39 47 14 48 25 7 16 44 46 43 41 36 25 8 40 31 42 34 35 22 17 8 32 41 48 19 34 32 7 27 33 5 19 28 17 11 7 34 11 7 43 28 30 17 17 24 8 19 11 6 45 19 31 30 19 39 49 23 25 17 11 26 28 7 30 11 26 14 32 36 11 49 36 11 32 24 37 18 6 36 16 8 17 16 25 28 30 5 15 14 12 35 44 15 33 33 33 24 28 45 34 6 11 36 17 31 27 39 14 27 31 33 45 